DIMENSION: 30
EDGE_WEIGHT_TYPE: EXPLICIT
EDGE_WEIGHT_FORMAT: FULL_MATRIX
EDGE_WEIGHT_SECTION:
32767 32767 32767 32767 35 20 32767 32767 32767 32767 35 32767 8 32767 76 32767 20 2 32767 32767 18 32767 64 32767 32767 32767 32767 32767 27 14 
32767 32767 53 39 3 93 32767 32767 46 32767 99 19 56 32767 32767 32767 32767 82 32767 32767 32767 32767 32767 32767 32767 32767 32767 32767 32767 12 
32767 53 32767 32767 32767 32767 32767 33 32767 32767 32767 32767 32767 32767 37 32767 39 32767 32767 31 28 15 48 32767 32767 44 32767 32767 32767 32767 
32767 39 32767 32767 32767 1 32767 32767 48 32767 85 92 28 46 32767 32767 32767 67 59 32767 54 86 25 73 32767 32767 32767 32767 32767 32767 
35 3 32767 32767 32767 76 85 98 32767 32767 32767 32767 67 32767 32767 32767 32767 68 39 32767 15 32767 6 32767 32767 32767 24 55 32767 32767 
20 93 32767 1 76 32767 97 3 32767 32767 32767 32767 32767 32767 6 32767 32767 32767 11 32767 98 36 32767 17 32767 32767 3 32767 27 32767 
32767 32767 32767 32767 85 97 32767 32767 32767 32767 66 37 59 22 32767 32767 32767 32767 32767 74 32767 32767 40 32767 32767 32767 91 32767 70 32767 
32767 32767 33 32767 98 3 32767 32767 32767 32767 32767 32767 56 32767 15 32767 32 75 32767 32767 32 32767 32767 32767 32767 62 32767 4 9 98 
32767 46 32767 48 32767 32767 32767 32767 32767 32767 32767 32767 32767 38 6 89 32767 32767 32767 32767 100 32767 32767 32767 49 32767 32767 32767 63 32767 
32767 32767 32767 32767 32767 32767 32767 32767 32767 32767 32767 32767 32767 4 32767 32767 32767 32767 96 32767 32767 5 32767 32767 32767 47 32767 69 32767 32767 
35 99 32767 85 32767 32767 66 32767 32767 32767 32767 32767 89 32767 32767 31 32767 29 32767 32767 66 32767 61 100 32767 32767 32767 32767 32767 32767 
32767 19 32767 92 32767 32767 37 32767 32767 32767 32767 32767 32767 34 32767 60 32767 32767 1 32767 32767 32767 100 55 71 22 81 50 32767 32767 
8 56 32767 28 67 32767 59 56 32767 32767 89 32767 32767 32767 32767 32767 65 32767 27 32767 32767 32767 62 32767 32767 32767 32767 32767 40 32767 
32767 32767 32767 46 32767 32767 22 32767 38 4 32767 34 32767 32767 10 97 32767 93 16 32767 32767 32767 32767 32767 32767 32767 32767 48 32767 32767 
76 32767 37 32767 32767 6 32767 15 6 32767 32767 32767 32767 10 32767 32767 32767 32767 73 92 45 65 76 32767 11 32767 26 88 77 32767 
32767 32767 32767 32767 32767 32767 32767 32767 89 32767 31 60 32767 97 32767 32767 2 32767 2 32767 60 55 32767 32767 32767 17 32767 33 32767 32767 
20 32767 39 32767 32767 32767 32767 32 32767 32767 32767 32767 65 32767 32767 2 32767 77 49 32767 32767 89 53 41 32767 93 64 32767 32767 32767 
2 82 32767 67 68 32767 32767 75 32767 32767 29 32767 32767 93 32767 32767 77 32767 32767 32767 41 32767 32767 100 61 43 32767 32767 38 32767 
32767 32767 32767 59 39 11 32767 32767 32767 96 32767 1 27 16 73 2 49 32767 32767 27 32767 32767 32767 77 54 32767 32767 32767 32767 32767 
32767 32767 31 32767 32767 32767 74 32767 32767 32767 32767 32767 32767 32767 92 32767 32767 32767 27 32767 32767 85 52 32767 32767 32767 32767 32767 32767 32767 
18 32767 28 54 15 98 32767 32 100 32767 66 32767 32767 32767 45 60 32767 41 32767 32767 32767 32767 86 32767 32767 60 32767 32767 32767 32767 
32767 32767 15 86 32767 36 32767 32767 32767 5 32767 32767 32767 32767 65 55 89 32767 32767 85 32767 32767 52 38 32767 32767 9 82 32767 32767 
64 32767 48 25 6 32767 40 32767 32767 32767 61 100 62 32767 76 32767 53 32767 32767 52 86 52 32767 32767 32767 36 43 90 32767 32767 
32767 32767 32767 73 32767 17 32767 32767 32767 32767 100 55 32767 32767 32767 32767 41 100 77 32767 32767 38 32767 32767 32767 32767 84 32767 32767 32767 
32767 32767 32767 32767 32767 32767 32767 32767 49 32767 32767 71 32767 32767 11 32767 32767 61 54 32767 32767 32767 32767 32767 32767 32767 17 32767 32767 32767 
32767 32767 44 32767 32767 32767 32767 62 32767 47 32767 22 32767 32767 32767 17 93 43 32767 32767 60 32767 36 32767 32767 32767 32767 95 32767 32767 
32767 32767 32767 32767 24 3 91 32767 32767 32767 32767 81 32767 32767 26 32767 64 32767 32767 32767 32767 9 43 84 17 32767 32767 32767 32767 13 
32767 32767 32767 32767 55 32767 32767 4 32767 69 32767 50 32767 48 88 33 32767 32767 32767 32767 32767 82 90 32767 32767 95 32767 32767 37 32767 
27 32767 32767 32767 32767 27 70 9 63 32767 32767 32767 40 32767 77 32767 32767 38 32767 32767 32767 32767 32767 32767 32767 32767 32767 37 32767 32767 
14 12 32767 32767 32767 32767 32767 98 32767 32767 32767 32767 32767 32767 32767 32767 32767 32767 32767 32767 32767 32767 32767 32767 32767 32767 13 32767 32767 32767 
EOF